0 0 0 0
0 1 0 0
0 2 0 0
0 3 0 0
0 4 0 6
0 5 0 4
0 6 0 8
0 7 0 8
0 8 2 8
0 9 0 6
0 10 0 4
0 11 0 17
0 12 2 5
0 13 0 8
0 14 2 14
0 15 0 25
0 16 0 9
0 17 0 27
0 18 0 13
0 19 0 24
0 20 1 16
0 21 2 10
0 22 2 19
0 23 2 27
0 24 0 22
0 25 2 10
0 26 0 31
0 27 1 24
0 28 0 31
0 29 0 35
0 30 1 34
0 31 0 42
